\ Model Cl_50_Ins_2.lp
\ LP format - for model browsing. Use MPS format to capture full model detail.
Maximize
 
Subject To
 obj1: y[0] = 0
 obj2: y[1] = 0
 obj1_Exp: - y[0] + 97 x[0] + 95 x[1] + 95 x[2] + 89 x[3] + 88 x[4]
   + 88 x[5] + 87 x[6] + 85 x[7] + 82 x[8] + 81 x[9] + 79 x[10] + 77 x[11]
   + 77 x[12] + 74 x[13] + 72 x[14] + 69 x[15] + 63 x[16] + 61 x[17]
   + 59 x[18] + 57 x[19] + 57 x[20] + 55 x[21] + 54 x[22] + 50 x[23]
   + 48 x[24] + 48 x[25] + 47 x[26] + 43 x[27] + 43 x[28] + 42 x[29]
   + 39 x[30] + 39 x[31] + 37 x[32] + 34 x[33] + 33 x[34] + 32 x[35]
   + 30 x[36] + 29 x[37] + 29 x[38] + 27 x[39] + 27 x[40] + 26 x[41]
   + 20 x[42] + 18 x[43] + 14 x[44] + 10 x[45] + 9 x[46] + 9 x[47]
   + 6 x[48] + 6 x[49] = 0
 obj2_Exp: - y[1] + 23 x[0] + 31 x[1] + 7 x[2] + 67 x[3] + 27 x[4]
   + 82 x[5] + 23 x[6] + 79 x[7] + 69 x[8] + 93 x[9] + 90 x[10] + 91 x[11]
   + 3 x[12] + 84 x[13] + 39 x[14] + 48 x[15] + 81 x[16] + 56 x[17]
   + 64 x[18] + 11 x[19] + 59 x[20] + 23 x[21] + 53 x[22] + 60 x[23]
   + 3 x[24] + 20 x[25] + 53 x[26] + 84 x[27] + 87 x[28] + 95 x[29]
   + 44 x[30] + 27 x[31] + 29 x[32] + 54 x[33] + 34 x[34] + 59 x[35]
   + 63 x[36] + 93 x[37] + 68 x[38] + 73 x[39] + 84 x[40] + 35 x[41]
   + 79 x[42] + 33 x[43] + 78 x[44] + 86 x[45] + 2 x[46] + 28 x[47]
   + 54 x[48] + 72 x[49] = 0
 Budget: 107 x[0] + 105 x[1] + 105 x[2] + 99 x[3] + 98 x[4] + 98 x[5]
   + 97 x[6] + 95 x[7] + 92 x[8] + 91 x[9] + 89 x[10] + 87 x[11] + 87 x[12]
   + 84 x[13] + 82 x[14] + 79 x[15] + 73 x[16] + 71 x[17] + 69 x[18]
   + 67 x[19] + 67 x[20] + 65 x[21] + 64 x[22] + 60 x[23] + 58 x[24]
   + 58 x[25] + 57 x[26] + 53 x[27] + 53 x[28] + 52 x[29] + 49 x[30]
   + 49 x[31] + 47 x[32] + 44 x[33] + 43 x[34] + 42 x[35] + 40 x[36]
   + 39 x[37] + 39 x[38] + 37 x[39] + 37 x[40] + 36 x[41] + 30 x[42]
   + 28 x[43] + 24 x[44] + 20 x[45] + 19 x[46] + 19 x[47] + 16 x[48]
   + 16 x[49] <= 1042
Bounds
Binaries
 x[0] x[1] x[2] x[3] x[4] x[5] x[6] x[7] x[8] x[9] x[10] x[11] x[12] x[13]
 x[14] x[15] x[16] x[17] x[18] x[19] x[20] x[21] x[22] x[23] x[24] x[25]
 x[26] x[27] x[28] x[29] x[30] x[31] x[32] x[33] x[34] x[35] x[36] x[37]
 x[38] x[39] x[40] x[41] x[42] x[43] x[44] x[45] x[46] x[47] x[48] x[49]
Generals
 y[0] y[1]
End
